NAME: kroA100
COMMENT: Local search tour for kroA100 (22960.617682469172)
TYPE: TOUR
DIMENSION: 100
TOUR_SECTION: 1 63 47 93 28 67 58 61 51 87 57 7 9 25 81 69 73 50 44 64 40 54 2 82 95 13 76 33 37 5 52 78 96 39 68 85 30 48 100 41 71 14 3 43 46 29 34 83 55 12 27 35 86 20 62 60 77 23 98 91 45 32 11 15 17 59 74 21 72 84 10 90 49 6 75 19 53 79 18 24 38 36 99 94 88 16 22 70 66 26 65 4 97 56 80 31 89 42 8 92 -1
EOF